[[89, 90, 99, 98, 97, 96, 87, 86, 95, 94, 93, 92, 91, 82, 83, 73, 84, 85, 76, 75, 77, 68, 67, 66, 74, 65, 64, 55, 56, 57, 58, 59, 49], [46, 47, 48, 39, 40, 38, 37, 28, 29, 30, 32, 31, 21, 23, 22, 13, 19, 20, 11, 12, 10, 2, 3, 4, 14, 5, 6, 7, 8, 9], [18, 17, 16, 15, 24, 25, 26, 27, 35, 36, 44, 34, 43, 33, 42, 41, 50, 60, 51, 52, 45, 54, 53, 63, 62, 61, 72, 81, 80, 71, 70, 69, 78, 79, 88]]